maximize cost: 46 x1 + 15 xd + 16 xe + 6 x10
 + 6 x11 + 5 x12 + 5 x13 + 28 x20 + 15 x16
 + 16 x17 + 6 x19 + 6 x1a + 5 x1b + 5 x1c
 + 22 x2f + 23 x30 + 8 x32 + 8 x33 + 7 x34
 + 7 x35 + 12 x42 + 20 x38 + 21 x39 + 8 x3b
 + 8 x3c + 7 x3d + 7 x3e + 26 x4c + 25 x4d
 + 15 x55 + 15 x56 + 18 x57 + 18 x58 + 6 x5a
 + 6 x5b + 1 x59 + 5 x5c + 5 x5d + 80 x6a
 + 15 x60 + 16 x61 + 6 x63 + 6 x64 + 5 x65
 + 5 x66 + 9 x82 + 4 x83 + 42 x8f + 19 x86
 + 9 x89 + 4 x8a + 13 x9f + 16 xa0 + 17 xa2
 + 7 xa3 + 12 xa4 + 4 xa5 + 13 xb7 + 11 xb9
 + 13 xaa + 16 xab + 17 xad + 7 xae + 12 xaf
 + 4 xb0 + 15 xcb + 15 xcc + 12 xcd + 12 xce
 + 14 xd0 + 14 xcf + 13 xd6 + 16 xd7 + 17 xd9
 + 7 xda + 12 xdb + 4 xdc + 24 xee + 25 xf0
 + 13 xe1 + 16 xe2 + 17 xe4 + 7 xe5 + 12 xe6
 + 4 xe7 + 33 x104 + 12 x10e + 12 x10f + 7 x117
 + 12 x112 + 12 x113 + 13 x121 + 13 x122 + 10 x157
 + 10 x158 + 2 x123 + 2 x124 + 6 x125 + 6 x126
 + 8 x159 + 8 x15a + 6 x129 + 6 x12a + 9 x12d
 + 9 x12e + 12 x131 + 12 x132 + 4 x15b + 4 x15c
 + 7 x15d + 7 x15e + 9 x141 + 9 x142 + 12 x145
 + 12 x146 + 12 x149 + 12 x14a + 7 x15f + 7 x160
 + 7 x161 + 7 x162 + 12 x18d + 12 x18f + 13 x167
 + 13 x168 + 15 x169 + 15 x16a + 10 x17f + 10 x180
 + 2 x16b + 2 x16c + 6 x16d + 6 x16e + 8 x181
 + 8 x182 + 6 x171 + 6 x172 + 4 x183 + 4 x184
 + 9 x179 + 9 x17a + 7 x185 + 7 x186
subject to
z = 0
o = 1
+1 x1 = +1
+1 x18d +1 x18f = +1
+1 x1 -1 xd -1 xe = +0
-1 x10 -1 x11 +1 xd = +0
-1 x12 -1 x13 +1 xe = +0
+1 x10 +1 x12 -1 x14 = +0
+1 x11 +1 x13 +1 x1d -1 x20 +0 x21 = +0
+1 x14 -1 x15 +1 x1e = +0
+1 x15 -1 x16 -1 x17 = +0
+1 x16 -1 x19 -1 x1a = +0
+1 x17 -1 x1b -1 x1c = +0
+1 x19 +1 x1b -1 x1e = +0
+1 x1a +1 x1c -1 x1d = +0
+1 x20 -1 x2f -1 x30 = +0
+1 x2f -1 x32 -1 x33 = +0
+1 x30 -1 x34 -1 x35 = +0
+1 x32 +1 x34 -1 x36 = +0
+1 x33 +1 x35 +1 x3f -1 x42 +0 x43 = +0
+1 x36 -1 x37 +1 x40 = +0
+1 x37 -1 x38 -1 x39 = +0
+1 x38 -1 x3b -1 x3c = +0
+1 x39 -1 x3d -1 x3e = +0
+1 x3b +1 x3d -1 x40 = +0
+1 x3c +1 x3e -1 x3f = +0
+1 x42 -1 x4c -1 x4d = +0
+1 x4c -1 x55 -1 x56 = +0
+1 x4d -1 x57 -1 x58 = +0
+1 x55 +1 x57 -1 x5a -1 x5b = +0
+1 x56 +1 x58 -1 x59 = +0
+1 x59 -1 x5c -1 x5d = +0
+1 x5a +1 x5c -1 x5e = +0
+1 x5b +1 x5d +1 x67 -1 x6a +0 x6b = +0
+1 x5e -1 x5f +1 x68 = +0
+1 x5f -1 x60 -1 x61 = +0
+1 x60 -1 x63 -1 x64 = +0
+1 x61 -1 x65 -1 x66 = +0
+1 x63 +1 x65 -1 x68 = +0
+1 x64 +1 x66 -1 x67 = +0
+1 x6a -1 x82 -1 x83 = +0
+1 x83 +1 x8a -1 x8f +0 x90 = +0
+1 x82 -1 x86 +1 x89 = +0
+1 x86 -1 x89 -1 x8a = +0
+1 x8f -1 x9f -1 xa0 = +0
+1 x9f -1 xa2 -1 xa3 = +0
+1 xa0 -1 xa4 -1 xa5 = +0
+1 xa5 +1 xb0 -1 xb7 +0 xb8 = +0
+1 xa3 +1 xae -1 xb9 +0 xba = +0
+1 xa2 +1 xa4 -1 xa8 = +0
+1 xa8 -1 xa9 +1 xb5 = +0
+1 xa9 -1 xaa -1 xab = +0
+1 xaa -1 xad -1 xae = +0
+1 xab -1 xaf -1 xb0 = +0
+1 xad +1 xaf -1 xb5 = +0
+1 xb7 -1 xcb -1 xcc = +0
+1 xb9 -1 xcd -1 xce = +0
+1 xcb +1 xcd -1 xd0 = +0
+1 xcc +1 xce -1 xcf = +0
+1 xcf +1 xd0 -1 xd4 = +0
+1 xd4 -1 xd6 -1 xd7 = +0
+1 xd6 -1 xd9 -1 xda = +0
+1 xd7 -1 xdb -1 xdc = +0
+1 xdc +1 xe7 -1 xee +0 xef = +0
+1 xda +1 xe5 -1 xf0 +0 xf1 = +0
+1 xd9 +1 xdb -1 xdf = +0
+1 xdf -1 xe0 +1 xec = +0
+1 xe0 -1 xe1 -1 xe2 = +0
+1 xe1 -1 xe4 -1 xe5 = +0
+1 xe2 -1 xe6 -1 xe7 = +0
+1 xe4 +1 xe6 -1 xec = +0
-1 x104 +1 xee +1 xf0 = +0
+1 x104 -1 x10e -1 x10f = +0
+1 x10f +1 x113 -1 x117 +0 x118 = +0
+1 x10e -1 x111 +1 x112 = +0
+1 x111 -1 x112 -1 x113 = +0
+1 x117 -1 x121 -1 x122 = +0
+1 x121 -1 x157 -1 x158 = +0
+1 x122 -1 x123 -1 x124 = +0
+1 x124 -1 x125 -1 x126 = +0
+1 x125 -1 x159 -1 x15a = +0
+1 x126 -1 x129 -1 x12a = +0
+1 x129 -1 x12c +1 x171 = +0
+1 x12c -1 x12d -1 x12e = +0
+1 x12e +1 x132 -1 x136 +0 x137 = +0
+1 x12d -1 x130 +1 x131 = +0
+1 x130 -1 x131 -1 x132 = +0
+1 x12a -1 x15b -1 x15c = +0
+1 x136 -1 x15d -1 x15e = +0
+1 x123 -1 x141 -1 x142 = +0
+1 x141 -1 x144 +1 x179 = +0
+1 x144 -1 x145 -1 x146 = +0
+1 x146 +1 x14a -1 x14e +0 x14f = +0
+1 x145 -1 x148 +1 x149 = +0
+1 x148 -1 x149 -1 x14a = +0
+1 x142 -1 x15f -1 x160 = +0
+1 x14e -1 x161 -1 x162 = +0
+1 x157 +1 x159 +1 x15d +1 x15f +1 x161 -1 x163 = +0
+1 x158 +1 x15a +1 x15e +1 x160 +1 x162 +1 x187 -1 x18d +0 x18e
= +0
+1 x15c +1 x184 -1 x18f +0 x190 = +0
+1 x163 -1 x165 +1 x189 = +0
+1 x15b -1 x166 +1 x183 = +0
+1 x165 -1 x167 -1 x168 = +0
+1 x166 -1 x169 -1 x16a = +0
+1 x167 +1 x169 -1 x17f -1 x180 = +0
+1 x168 +1 x16a -1 x16b -1 x16c = +0
+1 x16c -1 x16d -1 x16e = +0
+1 x16d -1 x181 -1 x182 = +0
+1 x16e -1 x171 -1 x172 = +0
+1 x172 -1 x183 -1 x184 = +0
+1 x16b -1 x179 -1 x17a = +0
+1 x17a -1 x185 -1 x186 = +0
+1 x17f +1 x181 +1 x185 -1 x189 = +0
+1 x180 +1 x182 +1 x186 -1 x187 = +0
-1 x1 +1 x20 = +0
-1 x20 +1 x42 = +0
-1 x42 +1 x6a = +0
-1 x6a +1 x8f = +0
-1 x8f +1 xb7 +1 xb9 = +0
-1 xb7 -1 xb9 +1 xee +1 xf0 = +0
-1 x1 +1 x6a = +0
-1 x6a +1 xee +1 xf0 = +0
-1 x104 +1 x18d +1 x18f = +0
-1 x1 +1 x20 = +0
-1 x14 -1 x1e +1 x21 = +0
-1 x20 +1 x42 = +0
-1 x36 -1 x40 +1 x43 = +0
-1 x4c -1 x4d +1 x6a = +0
-1 x5e -1 x68 +1 x6b = +0
-1 x6a +1 x8f = +0
-1 x82 -1 x89 +1 x90 = +0
-1 x8f +1 xb7 +1 xb9 = +0
-1 xa8 -1 xb5 +1 xb8 +1 xba = +0
-1 xd4 +1 xee +1 xf0 = +0
-1 xdf -1 xec +1 xef +1 xf1 = +0
-1 x104 +1 x117 = +0
-1 x10e -1 x112 +1 x118 = +0
-1 x141 +1 x14e -1 x179 = +0
-1 x145 -1 x149 +1 x14f = +0
-1 x129 +1 x136 -1 x171 = +0
-1 x12d -1 x131 +1 x137 = +0
-1 x123 +1 x142 +1 x14e -1 x16b +1 x17a = +0
-1 x104 +1 x117 = +0
-1 x126 +1 x12a +1 x136 -1 x16e +1 x172 = +0
-1 x117 +1 x18d +1 x18f = +0
-1 x15b -1 x163 -1 x183 -1 x189 +1 x18e +1 x190 = +0
-43 x1 +1 x14 +1 x1e >= +0
-87 x1 +1 x14 +1 x1e <= +0
-87 x1 +1 x14 +1 x1e <= +0
-87 x1 +1 x14 +1 x1e <= +0
-43 x20 +1 x36 +1 x40 >= +0
-87 x20 +1 x36 +1 x40 <= +0
-87 x20 +1 x36 +1 x40 <= +0
-87 x20 +1 x36 +1 x40 <= +0
-44 x42 +1 x4c +1 x4d +1 x5e +1 x68 >= +0
-88 x42 +1 x4c +1 x4d +1 x5e +1 x68 <= +0
-87 x4c -87 x4d +1 x5e +1 x68 <= +0
-87 x42 +1 x5e +1 x68 <= +0
-37 x6a +1 x82 +1 x89 >= +0
-37 x6a +1 x82 +1 x89 <= +0
-37 x6a +1 x82 +1 x89 <= +0
-37 x6a +1 x82 +1 x89 <= +0
-37 x8f +1 xa8 +1 xb5 >= +0
-74 x8f +1 xa8 +1 xb5 <= +0
-74 x8f +1 xa8 +1 xb5 <= +0
-74 x8f +1 xa8 +1 xb5 <= +0
-38 xb7 -38 xb9 +1 xd4 +1 xdf +1 xec >= +0
-76 xb7 -76 xb9 +1 xd4 +1 xdf +1 xec <= +0
-75 xd4 +1 xdf +1 xec <= +0
-75 xb7 -75 xb9 +1 xdf +1 xec <= +0
-42 x104 +1 x10e +1 x112 >= +0
-42 x104 +1 x10e +1 x112 <= +0
-42 x104 +1 x10e +1 x112 <= +0
-42 x104 +1 x10e +1 x112 <= +0
-43 x123 +1 x141 +1 x145 +1 x149 -43 x16b +1 x179 <= +0
-42 x141 +1 x145 +1 x149 -42 x179 <= +0
-42 x123 +1 x145 +1 x149 -42 x16b <= +0
-42 x126 +1 x129 +1 x12d +1 x131 -42 x16e +1 x171 <= +0
-41 x129 +1 x12d +1 x131 -41 x171 <= +0
-41 x126 +1 x12d +1 x131 -41 x16e <= +0
-89 x104 +1 x117 +1 x15b +1 x163 +1 x183 +1 x189 >= +0
-89 x104 +1 x117 +1 x15b +1 x163 +1 x183 +1 x189 <= +0
-88 x117 +1 x15b +1 x163 +1 x183 +1 x189 <= +0
-88 x104 +1 x15b +1 x163 +1 x183 +1 x189 <= +0
general
z
o
x1
xd
xe
x10
x11
x12
x13
x14
x20
x21
x15
x16
x17
x19
x1a
x1b
x1c
x1e
x1d
x2f
x30
x32
x33
x34
x35
x36
x42
x43
x37
x38
x39
x3b
x3c
x3d
x3e
x40
x3f
x4c
x4d
x55
x56
x57
x58
x5a
x5b
x59
x5c
x5d
x5e
x6a
x6b
x5f
x60
x61
x63
x64
x65
x66
x68
x67
x82
x83
x8f
x90
x86
x89
x8a
x9f
xa0
xa2
xa3
xa4
xa5
xb7
xb8
xb9
xba
xa8
xa9
xaa
xab
xad
xae
xaf
xb0
xb5
xcb
xcc
xcd
xce
xd0
xcf
xd4
xd6
xd7
xd9
xda
xdb
xdc
xee
xef
xf0
xf1
xdf
xe0
xe1
xe2
xe4
xe5
xe6
xe7
xec
x104
x10e
x10f
x117
x118
x111
x112
x113
x121
x122
x157
x158
x123
x124
x125
x126
x159
x15a
x129
x12a
x12c
x12d
x12e
x136
x137
x130
x131
x132
x15b
x15c
x15d
x15e
x141
x142
x144
x145
x146
x14e
x14f
x148
x149
x14a
x15f
x160
x161
x162
x163
x18d
x18e
x18f
x190
x165
x166
x167
x168
x169
x16a
x17f
x180
x16b
x16c
x16d
x16e
x181
x182
x171
x172
x183
x184
x179
x17a
x185
x186
x189
x187
end
